p cnf 21 45
10 -16 0
13 -16 0
-10 -13 16 0
1 -7 0
16 -7 0
-1 -16 7 0
16 4 0
-16 -4 0
1 -19 0
16 -19 0
-1 -16 19 0
-11 4 0
11 -4 0
-14 7 0
14 -7 0
11 -17 0
14 -17 0
-11 -14 17 0
2 -8 0
17 -8 0
-2 -17 8 0
17 5 0
-17 -5 0
2 -20 0
17 -20 0
-2 -17 20 0
-12 5 0
12 -5 0
-15 8 0
15 -8 0
12 -18 0
15 -18 0
-12 -15 18 0
3 -9 0
18 -9 0
-3 -18 9 0
18 6 0
-18 -6 0
3 -21 0
18 -21 0
-3 -18 21 0
-10 0
12 0
-13 0
15 0